p cnf 22 34 
1 -2 -3  -7 0
1 -2 -3  7 0
-1 -2 8 -11 -12 0
-1 -2 8 -11 12 0
-1 -2 8 11 -12 0
-1 -2 8 11 12 0
-8 -3 9 -13 -14 0
-8 -3 9 -13 14 0
-8 -3 9 13 -14 0
-8 -3 9 13 14 0
-9 -4 10 -15 -16 0
-9 -4 10 -15 16 0
-9 -4 10 15 -16 0
-9 -4 10 15 16 0
-10 -5  -17 -18 0
-10 -5  -17 18 0
-10 -5  17 -18 0
-10 -5  17 18 0
 -19 -20 -21 -22 0
 -19 -20 -21 22 0
 -19 -20 21 -22 0
 -19 -20 21 22 0
 -19 20 -21 -22 0
 -19 20 -21 22 0
 -19 20 21 -22 0
 -19 20 21 22 0
 19 -20 -21 -22 0
 19 -20 -21 22 0
 19 -20 21 -22 0
 19 -20 21 22 0
 19 20 -21 -22 0
 19 20 -21 22 0
 19 20 21 -22 0
 19 20 21 22 0
